\ Model SP
\ LP format - for model browsing. Use MPS format to capture full model detail.
Minimize
  360 x_0_1 + 240 x_0_2 + 360 x_1_0 + 300 x_1_5 + 240 x_2_0 + 240 x_2_3
   + 240 x_2_11 + 240 x_3_2 + 120 x_3_4 + 360 x_3_10 + 120 x_4_3
   + 240 x_4_5 + 300 x_4_8 + 300 x_5_1 + 240 x_5_4 + 120 x_5_7 + 180 x_6_7
   + 120 x_6_17 + 120 x_7_5 + 180 x_7_6 + 60 x_7_8 + 300 x_7_15 + 300 x_8_4
   + 60 x_8_7 + 180 x_8_9 + 180 x_9_8 + 300 x_9_10 + 360 x_9_14
   + 240 x_9_15 + 480 x_9_16 + 360 x_10_3 + 300 x_10_9 + 360 x_10_11
   + 240 x_10_13 + 240 x_11_2 + 360 x_11_10 + 180 x_11_12 + 180 x_12_11
   + 240 x_12_23 + 240 x_13_10 + 300 x_13_14 + 240 x_13_22 + 360 x_14_9
   + 300 x_14_13 + 180 x_14_18 + 180 x_14_21 + 300 x_15_7 + 240 x_15_9
   + 120 x_15_16 + 180 x_15_17 + 480 x_16_9 + 120 x_16_15 + 120 x_16_18
   + 120 x_17_6 + 180 x_17_15 + 240 x_17_19 + 180 x_18_14 + 120 x_18_16
   + 240 x_18_19 + 240 x_19_17 + 240 x_19_18 + 360 x_19_20 + 300 x_19_21
   + 360 x_20_19 + 120 x_20_21 + 180 x_20_23 + 180 x_21_14 + 300 x_21_19
   + 120 x_21_20 + 240 x_21_22 + 240 x_22_13 + 240 x_22_21 + 120 x_22_23
   + 240 x_23_12 + 180 x_23_20 + 120 x_23_22
Subject To
 Node_0: x_0_1 + x_0_2 - x_1_0 - x_2_0 = 1
 Node_1: - x_0_1 + x_1_0 + x_1_5 - x_5_1 = 0
 Node_2: - x_0_2 + x_2_0 + x_2_3 + x_2_11 - x_3_2 - x_11_2 = 0
 Node_3: - x_2_3 + x_3_2 + x_3_4 + x_3_10 - x_4_3 - x_10_3 = 0
 Node_4: - x_3_4 + x_4_3 + x_4_5 + x_4_8 - x_5_4 - x_8_4 = 0
 Node_5: - x_1_5 - x_4_5 + x_5_1 + x_5_4 + x_5_7 - x_7_5 = 0
 Node_6: x_6_7 + x_6_17 - x_7_6 - x_17_6 = 0
 Node_7: - x_5_7 - x_6_7 + x_7_5 + x_7_6 + x_7_8 + x_7_15 - x_8_7 - x_15_7
   = 0
 Node_8: - x_4_8 - x_7_8 + x_8_4 + x_8_7 + x_8_9 - x_9_8 = 0
 Node_9: - x_8_9 + x_9_8 + x_9_10 + x_9_14 + x_9_15 + x_9_16 - x_10_9
   - x_14_9 - x_15_9 - x_16_9 = 0
 Node_10: - x_3_10 - x_9_10 + x_10_3 + x_10_9 + x_10_11 + x_10_13 - x_11_10
   - x_13_10 = 0
 Node_11: - x_2_11 - x_10_11 + x_11_2 + x_11_10 + x_11_12 - x_12_11 = 0
 Node_12: - x_11_12 + x_12_11 + x_12_23 - x_23_12 = 0
 Node_13: - x_10_13 + x_13_10 + x_13_14 + x_13_22 - x_14_13 - x_22_13 = 0
 Node_14: - x_9_14 - x_13_14 + x_14_9 + x_14_13 + x_14_18 + x_14_21
   - x_18_14 - x_21_14 = 0
 Node_15: - x_7_15 - x_9_15 + x_15_7 + x_15_9 + x_15_16 + x_15_17 - x_16_15
   - x_17_15 = 0
 Node_16: - x_9_16 - x_15_16 + x_16_9 + x_16_15 + x_16_18 - x_18_16 = 0
 Node_17: - x_6_17 - x_15_17 + x_17_6 + x_17_15 + x_17_19 - x_19_17 = 0
 Node_18: - x_14_18 - x_16_18 + x_18_14 + x_18_16 + x_18_19 - x_19_18 = -1
 Node_19: - x_17_19 - x_18_19 + x_19_17 + x_19_18 + x_19_20 + x_19_21
   - x_20_19 - x_21_19 = 0
 Node_20: - x_19_20 + x_20_19 + x_20_21 + x_20_23 - x_21_20 - x_23_20 = 0
 Node_21: - x_14_21 - x_19_21 - x_20_21 + x_21_14 + x_21_19 + x_21_20
   + x_21_22 - x_22_21 = 0
 Node_22: - x_13_22 - x_21_22 + x_22_13 + x_22_21 + x_22_23 - x_23_22 = 0
 Node_23: - x_12_23 - x_20_23 - x_22_23 + x_23_12 + x_23_20 + x_23_22 = 0
 variance_limit: 16 x_0_1 + 36 x_0_2 + 16 x_1_0 + 25 x_1_5 + 36 x_2_0
   + 36 x_2_3 + 36 x_2_11 + 36 x_3_2 + 64 x_3_4 + 16 x_3_10 + 64 x_4_3
   + 36 x_4_5 + 25 x_4_8 + 25 x_5_1 + 36 x_5_4 + 64 x_5_7 + 49 x_6_7
   + 64 x_6_17 + 64 x_7_5 + 49 x_7_6 + 81 x_7_8 + 25 x_7_15 + 25 x_8_4
   + 81 x_8_7 + 49 x_8_9 + 49 x_9_8 + 25 x_9_10 + 16 x_9_14 + 36 x_9_15
   + 4 x_9_16 + 16 x_10_3 + 25 x_10_9 + 16 x_10_11 + 36 x_10_13 + 36 x_11_2
   + 16 x_11_10 + 49 x_11_12 + 49 x_12_11 + 36 x_12_23 + 36 x_13_10
   + 25 x_13_14 + 36 x_13_22 + 16 x_14_9 + 25 x_14_13 + 49 x_14_18
   + 49 x_14_21 + 25 x_15_7 + 36 x_15_9 + 64 x_15_16 + 49 x_15_17
   + 4 x_16_9 + 64 x_16_15 + 64 x_16_18 + 64 x_17_6 + 49 x_17_15
   + 36 x_17_19 + 49 x_18_14 + 64 x_18_16 + 36 x_18_19 + 36 x_19_17
   + 36 x_19_18 + 16 x_19_20 + 25 x_19_21 + 16 x_20_19 + 64 x_20_21
   + 49 x_20_23 + 49 x_21_14 + 25 x_21_19 + 64 x_21_20 + 36 x_21_22
   + 36 x_22_13 + 36 x_22_21 + 64 x_22_23 + 36 x_23_12 + 49 x_23_20
   + 64 x_23_22 <= 258
Bounds
 x_0_1 <= 1
 x_0_2 <= 1
 x_1_0 <= 1
 x_1_5 <= 1
 x_2_0 <= 1
 x_2_3 <= 1
 x_2_11 <= 1
 x_3_2 <= 1
 x_3_4 <= 1
 x_3_10 <= 1
 x_4_3 <= 1
 x_4_5 <= 1
 x_4_8 <= 1
 x_5_1 <= 1
 x_5_4 <= 1
 x_5_7 <= 1
 x_6_7 <= 1
 x_6_17 <= 1
 x_7_5 <= 1
 x_7_6 <= 1
 x_7_8 <= 1
 x_7_15 <= 1
 x_8_4 <= 1
 x_8_7 <= 1
 x_8_9 <= 1
 x_9_8 <= 1
 x_9_10 <= 1
 x_9_14 <= 1
 x_9_15 <= 1
 x_9_16 <= 1
 x_10_3 <= 1
 x_10_9 <= 1
 x_10_11 <= 1
 x_10_13 <= 1
 x_11_2 <= 1
 x_11_10 <= 1
 x_11_12 <= 1
 x_12_11 <= 1
 x_12_23 <= 1
 x_13_10 <= 1
 x_13_14 <= 1
 x_13_22 <= 1
 x_14_9 <= 1
 x_14_13 <= 1
 x_14_18 <= 1
 x_14_21 <= 1
 x_15_7 <= 1
 x_15_9 <= 1
 x_15_16 <= 1
 x_15_17 <= 1
 x_16_9 <= 1
 x_16_15 <= 1
 x_16_18 <= 1
 x_17_6 <= 1
 x_17_15 <= 1
 x_17_19 <= 1
 x_18_14 <= 1
 x_18_16 <= 1
 x_18_19 <= 1
 x_19_17 <= 1
 x_19_18 <= 1
 x_19_20 <= 1
 x_19_21 <= 1
 x_20_19 <= 1
 x_20_21 <= 1
 x_20_23 <= 1
 x_21_14 <= 1
 x_21_19 <= 1
 x_21_20 <= 1
 x_21_22 <= 1
 x_22_13 <= 1
 x_22_21 <= 1
 x_22_23 <= 1
 x_23_12 <= 1
 x_23_20 <= 1
 x_23_22 <= 1
End
